400
500
349
349
348
347
346
346
345
345
343
341
341
340
340
339
338
336
335
335
335
335
334
333
333
331
331
331
325
324
324
323
322
321
320
319
318
318
318
317
317
317
316
316
315
315
315
315
314
314
313
313
313
312
312
310
310
309
309
306
305
305
305
305
304
304
304
303
301
300
299
298
296
295
295
294
294
294
293
293
293
291
290
289
289
287
283
282
282
282
282
280
279
279
278
278
278
277
275
275
275
274
274
274
274
273
273
272
272
271
271
270
270
270
269
267
267
267
267
267
266
265
264
263
263
263
261
260
260
259
258
255
255
255
254
252
249
248
247
244
243
243
243
242
242
241
240
239
239
239
238
238
237
236
236
235
234
233
233
232
232
232
230
230
229
229
229
228
228
227
226
225
225
224
222
221
221
219
219
219
219
219
218
218
217
217
217
216
213
211
210
210
210
210
210
208
208
208
207
207
206
206
205
205
204
203
203
203
201
201
199
199
198
198
198
197
197
196
196
195
195
194
193
191
189
189
189
184
184
184
183
183
182
182
181
181
181
180
180
180
179
178
176
176
174
173
173
173
173
171
171
169
168
168
167
167
166
165
164
163
163
162
161
160
158
158
155
155
153
152
151
150
150
149
146
146
145
144
144
143
142
142
141
140
139
139
137
136
136
133
133
133
132
132
132
129
128
128
126
126
126
125
125
122
122
120
119
117
117
116
116
115
114
113
112
112
111
111
111
110
110
110
110
110
109
109
108
108
108
107
106
104
104
103
102
99
99
99
98
97
96
96
95
95
94
94
92
91
90
89
88
88
87
86
85
85
83
83
82
81
81
80
80
80
79
79
79
79
78
78
77
77
77
75
75
73
71
70
69
68
68
67
66
66
65
65
64
64
62
62
61
55
54
53
52
52
52
52
51
51
51
50
